c File: instances/12_0.40_1.col
c
c Description: Random graph of size 12 vertices and P(0.39999999999999997) of edges between any two vertices.
p col 12 66
e 1 4
e 1 6
e 1 9
e 2 7
e 2 9
e 3 4
e 3 8
e 3 9
e 4 8
e 4 9
e 4 11
e 5 6
e 5 8
e 5 9
e 5 11
e 6 8
e 6 9
e 6 10
e 6 11
e 7 8
e 7 9
e 8 10
e 8 11
e 8 12
e 11 12